n_res = 4;
rcap = [15, 15, 94, 84];
rtype = [1, 1, 2, 2];
n_tasks = 20;
modes = [ {1, 2, 3}, {4, 5, 6}, {7, 8, 9}, {10, 11, 12}, {13, 14, 15}, {16, 17, 18}, {19, 20, 21}, {22, 23, 24}, {25, 26, 27}, {28, 29, 30}, {31, 32, 33}, {34, 35, 36}, {37, 38, 39}, {40, 41, 42}, {43, 44, 45}, {46, 47, 48}, {49, 50, 51}, {52, 53, 54}, {55, 56, 57}, {58, 59, 60} ];
succ = [ {4, 7, 11}, {5, 9, 10}, {4, 11}, {8, 14, 15}, {6, 15, 17}, {8, 11}, {12, 18, 19}, {19}, {13, 14}, {18}, {14, 19, 20}, {15, 17}, {16, 17}, {16}, {20}, {18}, {20}, {}, {}, {} ];
n_opt = 60;
dur = [6, 9, 10, 2, 9, 10, 2, 2, 4, 1, 8, 9, 1, 5, 9, 4, 6, 6, 2, 8, 8, 3, 9, 9, 4, 4, 6, 5, 7, 10, 1, 1, 7, 4, 4, 6, 1, 8, 9, 1, 6, 8, 3, 5, 10, 2, 4, 5, 1, 2, 5, 3, 7, 10, 1, 2, 9, 5, 8, 9];
rreq = [| 10,  5,  3,  8,  6,  6,  9,  8,  6,  7,  7,  6,  9,  7,  5,  8,  6,  4,  6,  5,  4,  4,  2,  3,  6,  7,  5,  3,  2,  1,  9,  9,  9,  9, 10,  8,  8,  5,  1,  8,  5,  2,  6,  6,  6,  7,  6,  4,  7,  5,  2,  5,  3,  3,  8,  6,  3,  9,  5,  5
        |  5,  5,  4,  4,  2,  2,  7,  8,  1,  5,  5,  3,  8,  5,  4,  7,  6,  5,  7,  7,  7,  9,  8,  8,  9,  9,  7,  8,  4,  3,  5,  5,  2,  5,  4,  4,  7,  7,  5,  5,  5,  5,  9,  8,  7,  7,  6,  5,  4,  4,  3,  9,  8,  8,  9,  8,  7,  7,  4,  3
        |  0,  7,  1,  0,  0,  0,  0,  0,  0,  0,  7,  4,  7,  4,  1,  0,  8,  0,  0,  0,  8,  0,  3,  0,  6,  5,  2,  0,  0,  7,  8,  0,  7,  6,  0,  8,  0,  5,  2, 10,  0, 10,  0,  7,  3,  7,  0,  0,  0,  0,  0,  6,  0,  0,  0,  8,  0,  9,  8,  8
        |  6,  0,  0,  7,  6,  5,  3,  3,  3,  9,  0,  0,  0,  0,  0,  6,  0,  3,  5,  3,  0,  8,  0,  6,  0,  0,  0,  9,  8,  0,  0,  6,  0,  0,  8,  0,  6,  0,  0,  0,  4,  0,  5,  0,  0,  0, 10,  3,  4,  3,  3,  0,  8,  2,  4,  0,  3,  0,  0,  0 |];
